c Random generated cnf formula, satisfiable: true
p cnf 10 50
-5 3 -2 0
-9 -5 8 0
-6 -4 9 0
-2 -1 -8 0
1 -8 -9 0
-2 -6 10 0
10 -5 6 0
-4 -6 7 0
-5 7 10 0
3 -8 -1 0
8 -7 1 0
-3 -8 9 0
8 -4 2 0
10 -7 -8 0
5 7 -3 0
-5 8 -3 0
5 -8 9 0
4 -7 6 0
8 -9 2 0
7 4 -1 0
-7 9 -5 0
-7 -1 3 0
4 6 10 0
4 -10 6 0
-3 7 -5 0
-3 -4 6 0
-1 3 4 0
-3 -1 5 0
-10 7 9 0
9 5 3 0
-1 -7 -8 0
5 9 2 0
-6 -8 2 0
-9 -1 6 0
2 -5 -6 0
-6 10 9 0
7 10 -1 0
-10 -5 -2 0
-6 -5 9 0
-6 -7 5 0
-4 10 -1 0
-6 -1 2 0
-7 9 5 0
2 -7 9 0
2 -7 5 0
-6 9 10 0
10 6 3 0
-9 6 -10 0
5 -7 3 0
-8 -2 -1 0
